2 0 2 0 5
3 0 1 0 5
5 0 1 5 3
1 0 1 8 8
0 0 2 5 1
4 0 2 6 9
4 1 1 16 3
0 1 0 6 3
5 1 3 8 3
2 1 3 11 4
1 1 2 16 5
3 1 0 9 5
5 2 5 11 9
0 2 1 19 6
2 2 5 20 8
3 2 2 21 5
0 3 3 25 7
5 3 0 20 10
4 2 4 19 5
2 3 0 30 9
4 3 5 28 4
1 2 4 24 10
3 3 3 32 3
0 4 5 32 3
2 4 1 39 1
4 4 0 39 3
5 4 4 34 4
5 5 2 38 1
1 3 5 35 10
1 4 0 45 10
4 5 3 42 1
3 4 4 38 8
0 5 4 46 6
2 5 4 52 7
1 5 3 55 4
3 5 5 46 9
